
nNurses = 165;
hours = 62;
demand = [31 5 7 19 4 34 25 37 11 21 20 34 16 26 39 18 3 29 11 26 41 37 5 3 38 14 11 21 10 24 9 32 37 34 39 10 14 17 2 21 6 35 6 9 8 29 21 12 23 23 36 5 22 10 6 38 32 9 33 7 7 10];
minHours = 11;
maxHours = 39;
maxConsec = 28;
maxPresence = 59;